p cnf 60 554
1 2 3 0
4 5 6 0
7 8 9 0
10 11 12 0
13 14 15 0
16 17 18 0
19 20 21 0
22 23 24 0
25 26 27 0
28 29 30 0
31 32 33 0
34 35 36 0
37 38 39 0
40 41 42 0
43 44 45 0
46 47 48 0
49 50 51 0
52 53 54 0
55 56 57 0
58 59 60 0
-1 -2 0
-1 -3 0
-2 -3 0
-4 -5 0
-4 -6 0
-5 -6 0
-7 -8 0
-7 -9 0
-8 -9 0
-10 -11 0
-10 -12 0
-11 -12 0
-13 -14 0
-13 -15 0
-14 -15 0
-16 -17 0
-16 -18 0
-17 -18 0
-19 -20 0
-19 -21 0
-20 -21 0
-22 -23 0
-22 -24 0
-23 -24 0
-25 -26 0
-25 -27 0
-26 -27 0
-28 -29 0
-28 -30 0
-29 -30 0
-31 -32 0
-31 -33 0
-32 -33 0
-34 -35 0
-34 -36 0
-35 -36 0
-37 -38 0
-37 -39 0
-38 -39 0
-40 -41 0
-40 -42 0
-41 -42 0
-43 -44 0
-43 -45 0
-44 -45 0
-46 -47 0
-46 -48 0
-47 -48 0
-49 -50 0
-49 -51 0
-50 -51 0
-52 -53 0
-52 -54 0
-53 -54 0
-55 -56 0
-55 -57 0
-56 -57 0
-58 -59 0
-58 -60 0
-59 -60 0
-1 -4 0
-1 -7 0
-1 -25 0
-1 -31 0
-1 -34 0
-1 -43 0
-1 -46 0
-1 -49 0
-4 -1 0
-4 -10 0
-4 -22 0
-4 -25 0
-4 -37 0
-4 -49 0
-4 -55 0
-4 -58 0
-7 -1 0
-7 -10 0
-7 -22 0
-7 -31 0
-7 -43 0
-7 -55 0
-7 -58 0
-10 -4 0
-10 -7 0
-10 -19 0
-10 -22 0
-10 -43 0
-10 -46 0
-10 -49 0
-10 -52 0
-10 -58 0
-13 -16 0
-13 -19 0
-13 -31 0
-13 -34 0
-13 -37 0
-13 -40 0
-13 -43 0
-13 -49 0
-13 -52 0
-13 -58 0
-16 -13 0
-16 -25 0
-16 -31 0
-16 -34 0
-16 -37 0
-16 -40 0
-16 -43 0
-16 -46 0
-16 -52 0
-19 -10 0
-19 -13 0
-19 -25 0
-19 -28 0
-19 -34 0
-19 -37 0
-19 -52 0
-22 -4 0
-22 -7 0
-22 -10 0
-22 -37 0
-22 -40 0
-22 -43 0
-22 -49 0
-22 -52 0
-25 -1 0
-25 -4 0
-25 -16 0
-25 -19 0
-25 -28 0
-25 -37 0
-25 -40 0
-25 -43 0
-28 -19 0
-28 -25 0
-28 -34 0
-28 -37 0
-28 -40 0
-28 -46 0
-28 -55 0
-28 -58 0
-31 -1 0
-31 -7 0
-31 -13 0
-31 -16 0
-31 -37 0
-31 -40 0
-31 -43 0
-31 -49 0
-31 -55 0
-34 -1 0
-34 -13 0
-34 -16 0
-34 -19 0
-34 -28 0
-34 -40 0
-34 -49 0
-34 -52 0
-34 -58 0
-37 -4 0
-37 -13 0
-37 -16 0
-37 -19 0
-37 -22 0
-37 -25 0
-37 -28 0
-37 -31 0
-40 -13 0
-40 -16 0
-40 -22 0
-40 -25 0
-40 -28 0
-40 -31 0
-40 -34 0
-40 -43 0
-43 -1 0
-43 -7 0
-43 -10 0
-43 -13 0
-43 -16 0
-43 -22 0
-43 -25 0
-43 -31 0
-43 -40 0
-46 -1 0
-46 -10 0
-46 -16 0
-46 -28 0
-46 -52 0
-46 -58 0
-49 -1 0
-49 -4 0
-49 -10 0
-49 -13 0
-49 -22 0
-49 -31 0
-49 -34 0
-52 -10 0
-52 -13 0
-52 -16 0
-52 -19 0
-52 -22 0
-52 -34 0
-52 -46 0
-55 -4 0
-55 -7 0
-55 -28 0
-55 -31 0
-55 -58 0
-58 -4 0
-58 -7 0
-58 -10 0
-58 -13 0
-58 -28 0
-58 -34 0
-58 -46 0
-58 -55 0
-2 -5 0
-2 -8 0
-2 -26 0
-2 -32 0
-2 -35 0
-2 -44 0
-2 -47 0
-2 -50 0
-5 -2 0
-5 -11 0
-5 -23 0
-5 -26 0
-5 -38 0
-5 -50 0
-5 -56 0
-5 -59 0
-8 -2 0
-8 -11 0
-8 -23 0
-8 -32 0
-8 -44 0
-8 -56 0
-8 -59 0
-11 -5 0
-11 -8 0
-11 -20 0
-11 -23 0
-11 -44 0
-11 -47 0
-11 -50 0
-11 -53 0
-11 -59 0
-14 -17 0
-14 -20 0
-14 -32 0
-14 -35 0
-14 -38 0
-14 -41 0
-14 -44 0
-14 -50 0
-14 -53 0
-14 -59 0
-17 -14 0
-17 -26 0
-17 -32 0
-17 -35 0
-17 -38 0
-17 -41 0
-17 -44 0
-17 -47 0
-17 -53 0
-20 -11 0
-20 -14 0
-20 -26 0
-20 -29 0
-20 -35 0
-20 -38 0
-20 -53 0
-23 -5 0
-23 -8 0
-23 -11 0
-23 -38 0
-23 -41 0
-23 -44 0
-23 -50 0
-23 -53 0
-26 -2 0
-26 -5 0
-26 -17 0
-26 -20 0
-26 -29 0
-26 -38 0
-26 -41 0
-26 -44 0
-29 -20 0
-29 -26 0
-29 -35 0
-29 -38 0
-29 -41 0
-29 -47 0
-29 -56 0
-29 -59 0
-32 -2 0
-32 -8 0
-32 -14 0
-32 -17 0
-32 -38 0
-32 -41 0
-32 -44 0
-32 -50 0
-32 -56 0
-35 -2 0
-35 -14 0
-35 -17 0
-35 -20 0
-35 -29 0
-35 -41 0
-35 -50 0
-35 -53 0
-35 -59 0
-38 -5 0
-38 -14 0
-38 -17 0
-38 -20 0
-38 -23 0
-38 -26 0
-38 -29 0
-38 -32 0
-41 -14 0
-41 -17 0
-41 -23 0
-41 -26 0
-41 -29 0
-41 -32 0
-41 -35 0
-41 -44 0
-44 -2 0
-44 -8 0
-44 -11 0
-44 -14 0
-44 -17 0
-44 -23 0
-44 -26 0
-44 -32 0
-44 -41 0
-47 -2 0
-47 -11 0
-47 -17 0
-47 -29 0
-47 -53 0
-47 -59 0
-50 -2 0
-50 -5 0
-50 -11 0
-50 -14 0
-50 -23 0
-50 -32 0
-50 -35 0
-53 -11 0
-53 -14 0
-53 -17 0
-53 -20 0
-53 -23 0
-53 -35 0
-53 -47 0
-56 -5 0
-56 -8 0
-56 -29 0
-56 -32 0
-56 -59 0
-59 -5 0
-59 -8 0
-59 -11 0
-59 -14 0
-59 -29 0
-59 -35 0
-59 -47 0
-59 -56 0
-3 -6 0
-3 -9 0
-3 -27 0
-3 -33 0
-3 -36 0
-3 -45 0
-3 -48 0
-3 -51 0
-6 -3 0
-6 -12 0
-6 -24 0
-6 -27 0
-6 -39 0
-6 -51 0
-6 -57 0
-6 -60 0
-9 -3 0
-9 -12 0
-9 -24 0
-9 -33 0
-9 -45 0
-9 -57 0
-9 -60 0
-12 -6 0
-12 -9 0
-12 -21 0
-12 -24 0
-12 -45 0
-12 -48 0
-12 -51 0
-12 -54 0
-12 -60 0
-15 -18 0
-15 -21 0
-15 -33 0
-15 -36 0
-15 -39 0
-15 -42 0
-15 -45 0
-15 -51 0
-15 -54 0
-15 -60 0
-18 -15 0
-18 -27 0
-18 -33 0
-18 -36 0
-18 -39 0
-18 -42 0
-18 -45 0
-18 -48 0
-18 -54 0
-21 -12 0
-21 -15 0
-21 -27 0
-21 -30 0
-21 -36 0
-21 -39 0
-21 -54 0
-24 -6 0
-24 -9 0
-24 -12 0
-24 -39 0
-24 -42 0
-24 -45 0
-24 -51 0
-24 -54 0
-27 -3 0
-27 -6 0
-27 -18 0
-27 -21 0
-27 -30 0
-27 -39 0
-27 -42 0
-27 -45 0
-30 -21 0
-30 -27 0
-30 -36 0
-30 -39 0
-30 -42 0
-30 -48 0
-30 -57 0
-30 -60 0
-33 -3 0
-33 -9 0
-33 -15 0
-33 -18 0
-33 -39 0
-33 -42 0
-33 -45 0
-33 -51 0
-33 -57 0
-36 -3 0
-36 -15 0
-36 -18 0
-36 -21 0
-36 -30 0
-36 -42 0
-36 -51 0
-36 -54 0
-36 -60 0
-39 -6 0
-39 -15 0
-39 -18 0
-39 -21 0
-39 -24 0
-39 -27 0
-39 -30 0
-39 -33 0
-42 -15 0
-42 -18 0
-42 -24 0
-42 -27 0
-42 -30 0
-42 -33 0
-42 -36 0
-42 -45 0
-45 -3 0
-45 -9 0
-45 -12 0
-45 -15 0
-45 -18 0
-45 -24 0
-45 -27 0
-45 -33 0
-45 -42 0
-48 -3 0
-48 -12 0
-48 -18 0
-48 -30 0
-48 -54 0
-48 -60 0
-51 -3 0
-51 -6 0
-51 -12 0
-51 -15 0
-51 -24 0
-51 -33 0
-51 -36 0
-54 -12 0
-54 -15 0
-54 -18 0
-54 -21 0
-54 -24 0
-54 -36 0
-54 -48 0
-57 -6 0
-57 -9 0
-57 -30 0
-57 -33 0
-57 -60 0
-60 -6 0
-60 -9 0
-60 -12 0
-60 -15 0
-60 -30 0
-60 -36 0
-60 -48 0
-60 -57 0
